Cost: 1626
0-32-30-27-23-20-21-22-28-29-31-0
0-26-25-24-19-33-18-17-10-9-34-8-12-5-7-6-4-0
0-2-3-35-13-11-14-15-16-1-0
Cost: 1626
0-32-30-27-23-20-21-22-28-29-31-0
0-26-25-24-19-33-18-17-10-9-34-8-12-5-7-6-4-0
0-2-3-35-13-11-14-15-16-1-0
Cost: 1626
0-32-30-27-23-20-21-22-28-29-31-0
0-26-25-24-19-33-18-17-10-9-34-8-12-5-7-6-4-0
0-2-3-35-13-11-14-15-16-1-0
Cost: 1626
0-32-30-27-23-20-21-22-28-29-31-0
0-26-25-24-19-33-18-17-10-9-34-8-12-5-7-6-4-0
0-2-3-35-13-11-14-15-16-1-0
Cost: 1626
0-32-30-27-23-20-21-22-28-29-31-0
0-26-25-24-19-33-18-17-10-9-34-8-12-5-7-6-4-0
0-2-3-35-13-11-14-15-16-1-0
Cost: 1626
0-32-30-27-23-20-21-22-28-29-31-0
0-26-25-24-19-33-18-17-10-9-34-8-12-5-7-6-4-0
0-2-3-35-13-11-14-15-16-1-0
Cost: 1626
0-32-30-27-23-20-21-22-28-29-31-0
0-26-25-24-19-33-18-17-10-9-34-8-12-5-7-6-4-0
0-2-3-35-13-11-14-15-16-1-0
Cost: 1626
0-32-30-27-23-20-21-22-28-29-31-0
0-26-25-24-19-33-18-17-10-9-34-8-12-5-7-6-4-0
0-2-3-35-13-11-14-15-16-1-0
Cost: 1626
0-32-30-27-23-20-21-22-28-29-31-0
0-26-25-24-19-33-18-17-10-9-34-8-12-5-7-6-4-0
0-2-3-35-13-11-14-15-16-1-0
Cost: 1626
0-32-30-27-23-20-21-22-28-29-31-0
0-26-25-24-19-33-18-17-10-9-34-8-12-5-7-6-4-0
0-2-3-35-13-11-14-15-16-1-0
Cost: 1626
0-32-30-27-23-20-21-22-28-29-31-0
0-26-25-24-19-33-18-17-10-9-34-8-12-5-7-6-4-0
0-2-3-35-13-11-14-15-16-1-0
Cost: 1626
0-26-25-24-19-33-18-17-10-9-34-8-12-5-7-6-4-0
0-32-30-27-23-20-21-22-28-29-31-0
0-2-3-35-13-11-14-15-16-1-0
Cost: 1626
0-26-25-24-19-33-18-17-10-9-34-8-12-5-7-6-4-0
0-32-30-27-23-20-21-22-28-29-31-0
0-2-3-35-13-11-14-15-16-1-0
Cost: 1626
0-26-25-24-19-33-18-17-10-9-34-8-12-5-7-6-4-0
0-32-30-27-23-20-21-22-28-29-31-0
0-2-3-35-13-11-14-15-16-1-0
Cost: 1626
0-26-25-24-19-33-18-17-10-9-34-8-12-5-7-6-4-0
0-32-30-27-23-20-21-22-28-29-31-0
0-2-3-35-13-11-14-15-16-1-0
Cost: 1626
0-26-25-24-19-33-18-17-10-9-34-8-12-5-7-6-4-0
0-32-30-27-23-20-21-22-28-29-31-0
0-2-3-35-13-11-14-15-16-1-0
Cost: 1626
0-26-25-24-19-33-18-17-10-9-34-8-12-5-7-6-4-0
0-32-30-27-23-20-21-22-28-29-31-0
0-2-3-35-13-11-14-15-16-1-0
Cost: 1626
0-26-25-24-19-33-18-17-10-9-34-8-12-5-7-6-4-0
0-32-30-27-23-20-21-22-28-29-31-0
0-2-3-35-13-11-14-15-16-1-0
Cost: 1626
0-26-25-24-19-33-18-17-10-9-34-8-12-5-7-6-4-0
0-32-30-27-23-20-21-22-28-29-31-0
0-2-3-35-13-11-14-15-16-1-0
Cost: 1626
0-26-25-24-19-33-18-17-10-9-34-8-12-5-7-6-4-0
0-32-30-27-23-20-21-22-28-29-31-0
0-2-3-35-13-11-14-15-16-1-0
Cost: 1626
0-26-25-24-19-33-18-17-10-9-34-8-12-5-7-6-4-0
0-32-30-27-23-20-21-22-28-29-31-0
0-2-3-35-13-11-14-15-16-1-0
Cost: 1626
0-26-25-24-19-33-18-17-10-9-34-8-12-5-7-6-4-0
0-32-30-27-23-20-21-22-28-29-31-0
0-2-3-35-13-11-14-15-16-1-0
Cost: 1626
0-26-25-24-19-33-18-17-10-9-34-8-12-5-7-6-4-0
0-32-30-27-23-20-21-22-28-29-31-0
0-2-3-35-13-11-14-15-16-1-0
Cost: 1626
0-26-25-24-19-33-18-17-10-9-34-8-12-5-7-6-4-0
0-32-30-27-23-20-21-22-28-29-31-0
0-2-3-35-13-11-14-15-16-1-0
Cost: 1626
0-26-25-24-19-33-18-17-10-9-34-8-12-5-7-6-4-0
0-32-30-27-23-20-21-22-28-29-31-0
0-2-3-35-13-11-14-15-16-1-0
Cost: 1626
0-2-3-35-13-11-14-15-16-1-0
0-32-30-27-23-20-21-22-28-29-31-0
0-26-25-24-19-33-18-17-10-9-34-8-12-5-7-6-4-0
Cost: 1626
0-26-25-24-19-33-18-17-10-9-34-8-12-5-7-6-4-0
0-32-30-27-23-20-21-22-28-29-31-0
0-2-3-35-13-11-14-15-16-1-0
Cost: 1626
0-26-25-24-19-33-18-17-10-9-34-8-12-5-7-6-4-0
0-32-30-27-23-20-21-22-28-29-31-0
0-2-3-35-13-11-14-15-16-1-0
Cost: 1626
0-26-25-24-19-33-18-17-10-9-34-8-12-5-7-6-4-0
0-32-30-27-23-20-21-22-28-29-31-0
0-2-3-35-13-11-14-15-16-1-0
Cost: 1626
0-26-25-24-19-33-18-17-10-9-34-8-12-5-7-6-4-0
0-32-30-27-23-20-21-22-28-29-31-0
0-2-3-35-13-11-14-15-16-1-0
Cost: 1626
0-26-25-24-19-33-18-17-10-9-34-8-12-5-7-6-4-0
0-32-30-27-23-20-21-22-28-29-31-0
0-2-3-35-13-11-14-15-16-1-0
Cost: 1626
0-26-25-24-19-33-18-17-10-9-34-8-12-5-7-6-4-0
0-32-30-27-23-20-21-22-28-29-31-0
0-2-3-35-13-11-14-15-16-1-0
Cost: 1626
0-2-3-35-13-11-14-15-16-1-0
0-32-30-27-23-20-21-22-28-29-31-0
0-26-25-24-19-33-18-17-10-9-34-8-12-5-7-6-4-0
Cost: 1626
0-26-25-24-19-33-18-17-10-9-34-8-12-5-7-6-4-0
0-2-3-35-13-11-14-15-16-1-0
0-32-30-27-23-20-21-22-28-29-31-0
Cost: 1626
0-26-25-24-19-33-18-17-10-9-34-8-12-5-7-6-4-0
0-2-3-35-13-11-14-15-16-1-0
0-32-30-27-23-20-21-22-28-29-31-0
Cost: 1626
0-32-30-27-23-20-21-22-28-29-31-0
0-2-3-35-13-11-14-15-16-1-0
0-26-25-24-19-33-18-17-10-9-34-8-12-5-7-6-4-0
